20J6M/DAT/20J6MNNL-4.dat
20 6
25.3875 25.3875
19.894 19.894
30.6503 30.6503
25.3369 25.3369
24.8481 24.8481
26.8629 26.8629
30.2295 30.2295
22.7624 22.7624
22.3002 22.3002
21.6895 21.6895
19.2571 19.2571
29.2041 29.2041
29.1854 29.1854
19.5485 19.5485
22.1861 22.1861
20.9472 20.9472
25.5965 25.5965
29.3419 29.3419
23.2739 23.2739
27.3232 27.3232
495.8252