20J6M/SOL/20J6MNNL-4.sol
solution status: optimal solution found
objective value:                     82.6375333333333
x#1#5                                               1 	(obj:0)
x#2#4                                               1 	(obj:0)
x#3#2                               0.817986555868405 	(obj:0)
x#3#5                               0.182013444131595 	(obj:0)
x#4#5                                               1 	(obj:0)
x#5#5                                               1 	(obj:0)
x#6#1                               0.325254036856283 	(obj:0)
x#6#3                               0.674745963143717 	(obj:0)
x#7#2                                               1 	(obj:0)
x#8#1                                               1 	(obj:0)
x#9#1                               0.984164566536025 	(obj:0)
x#9#4                              0.0158354334639751 	(obj:0)
x#10#3                                              1 	(obj:0)
x#11#4                                              1 	(obj:0)
x#12#1                             0.0639499248393209 	(obj:0)
x#12#2                              0.936050075160679 	(obj:0)
x#13#6                                              1 	(obj:0)
x#14#3                                              1 	(obj:0)
x#15#4                                              1 	(obj:0)
x#16#4                                              1 	(obj:0)
x#17#6                                              1 	(obj:0)
x#18#5                             0.0506533887262468 	(obj:0)
x#18#6                              0.949346611273753 	(obj:0)
x#19#3                                              1 	(obj:0)
x#20#1                                              1 	(obj:0)
z                                    82.6375333333333 	(obj:1)
